(set-option :produce-models true)
(set-logic QF_LRA)
(set-info :notes | Strip-packing problem.|)
(declare-fun x0 () Real)
(declare-fun y0 () Real)
(declare-fun x1 () Real)
(declare-fun y1 () Real)
(declare-fun x2 () Real)
(declare-fun y2 () Real)
(declare-fun x3 () Real)
(declare-fun y3 () Real)
(declare-fun x4 () Real)
(declare-fun y4 () Real)
(declare-fun x5 () Real)
(declare-fun y5 () Real)
(declare-fun x6 () Real)
(declare-fun y6 () Real)
(declare-fun x7 () Real)
(declare-fun y7 () Real)
(declare-fun x8 () Real)
(declare-fun y8 () Real)
(declare-fun x9 () Real)
(declare-fun y9 () Real)
(declare-fun x10 () Real)
(declare-fun y10 () Real)
(declare-fun x11 () Real)
(declare-fun y11 () Real)
(declare-fun z () Real)
(declare-fun c () Real)
(assert (and (= c z) (and (>= x0 0) 
(and (>= y0 0) 
(and (>= x1 0) 
(and (>= y1 0) 
(and (>= x2 0) 
(and (>= y2 0) 
(and (>= x3 0) 
(and (>= y3 0) 
(and (>= x4 0) 
(and (>= y4 0) 
(and (>= x5 0) 
(and (>= y5 0) 
(and (>= x6 0) 
(and (>= y6 0) 
(and (>= x7 0) 
(and (>= y7 0) 
(and (>= x8 0) 
(and (>= y8 0) 
(and (>= x9 0) 
(and (>= y9 0) 
(and (>= x10 0) 
(and (>= y10 0) 
(and (>= x11 0) 
(and (>= y11 0) 
(and (>= z 0) 
(and (>= c 0) 
(and (<= (+ x0 0.7639519103) z) 
(and (<= 0.8968339658 y0) 
(and (<= y0 1.0) 
(and (<= x0 (- 4.0264235935 0.7639519103)) 
(and (>= x0 0) 
(and (<= (+ x1 0.8273354707) z) 
(and (<= 0.8938167076 y1) 
(and (<= y1 1.0) 
(and (<= x1 (- 4.0264235935 0.8273354707)) 
(and (>= x1 0) 
(and (<= (+ x2 0.6039417574) z) 
(and (<= 0.8450277292 y2) 
(and (<= y2 1.0) 
(and (<= x2 (- 4.0264235935 0.6039417574)) 
(and (>= x2 0) 
(and (<= (+ x3 0.1995521615) z) 
(and (<= 0.806564382 y3) 
(and (<= y3 1.0) 
(and (<= x3 (- 4.0264235935 0.1995521615)) 
(and (>= x3 0) 
(and (<= (+ x4 0.2348373975) z) 
(and (<= 0.7780718243 y4) 
(and (<= y4 1.0) 
(and (<= x4 (- 4.0264235935 0.2348373975)) 
(and (>= x4 0) 
(and (<= (+ x5 0.4633199918) z) 
(and (<= 0.7233173566 y5) 
(and (<= y5 1.0) 
(and (<= x5 (- 4.0264235935 0.4633199918)) 
(and (>= x5 0) 
(and (<= (+ x6 0.9334849043) z) 
(and (<= 0.5984089855 y6) 
(and (<= y6 1.0) 
(and (<= x6 (- 4.0264235935 0.9334849043)) 
(and (>= x6 0) 
(and (<= (+ x7 0.6901500427) z) 
(and (<= 0.3730243976 y7) 
(and (<= y7 1.0) 
(and (<= x7 (- 4.0264235935 0.6901500427)) 
(and (>= x7 0) 
(and (<= (+ x8 0.0820449569) z) 
(and (<= 0.1995476485 y8) 
(and (<= y8 1.0) 
(and (<= x8 (- 4.0264235935 0.0820449569)) 
(and (>= x8 0) 
(and (<= (+ x9 0.1710799512) z) 
(and (<= 0.1933476533 y9) 
(and (<= y9 1.0) 
(and (<= x9 (- 4.0264235935 0.1710799512)) 
(and (>= x9 0) 
(and (<= (+ x10 0.2681052911) z) 
(and (<= 0.145351642 y10) 
(and (<= y10 1.0) 
(and (<= x10 (- 4.0264235935 0.2681052911)) 
(and (>= x10 0) 
(and (<= (+ x11 0.7855995674) z) 
(and (<= 0.0725243686 y11) 
(and (<= y11 1.0) 
(and (<= x11 (- 4.0264235935 0.7855995674)) 
(and (>= x11 0) 
(and (<= c 4.0264235935) 
(and (or (<= (+ x0 0.7639519103) x1) (or (<= (+ x1 0.8273354707) x0) (or (>= (- y0 0.8968339658) y1) (or (>= (- y1 0.8938167076) y0))))) 
(and (or (<= (+ x0 0.7639519103) x2) (or (<= (+ x2 0.6039417574) x0) (or (>= (- y0 0.8968339658) y2) (or (>= (- y2 0.8450277292) y0))))) 
(and (or (<= (+ x0 0.7639519103) x3) (or (<= (+ x3 0.1995521615) x0) (or (>= (- y0 0.8968339658) y3) (or (>= (- y3 0.806564382) y0))))) 
(and (or (<= (+ x0 0.7639519103) x4) (or (<= (+ x4 0.2348373975) x0) (or (>= (- y0 0.8968339658) y4) (or (>= (- y4 0.7780718243) y0))))) 
(and (or (<= (+ x0 0.7639519103) x5) (or (<= (+ x5 0.4633199918) x0) (or (>= (- y0 0.8968339658) y5) (or (>= (- y5 0.7233173566) y0))))) 
(and (or (<= (+ x0 0.7639519103) x6) (or (<= (+ x6 0.9334849043) x0) (or (>= (- y0 0.8968339658) y6) (or (>= (- y6 0.5984089855) y0))))) 
(and (or (<= (+ x0 0.7639519103) x7) (or (<= (+ x7 0.6901500427) x0) (or (>= (- y0 0.8968339658) y7) (or (>= (- y7 0.3730243976) y0))))) 
(and (or (<= (+ x0 0.7639519103) x8) (or (<= (+ x8 0.0820449569) x0) (or (>= (- y0 0.8968339658) y8) (or (>= (- y8 0.1995476485) y0))))) 
(and (or (<= (+ x0 0.7639519103) x9) (or (<= (+ x9 0.1710799512) x0) (or (>= (- y0 0.8968339658) y9) (or (>= (- y9 0.1933476533) y0))))) 
(and (or (<= (+ x0 0.7639519103) x10) (or (<= (+ x10 0.2681052911) x0) (or (>= (- y0 0.8968339658) y10) (or (>= (- y10 0.145351642) y0))))) 
(and (or (<= (+ x0 0.7639519103) x11) (or (<= (+ x11 0.7855995674) x0) (or (>= (- y0 0.8968339658) y11) (or (>= (- y11 0.0725243686) y0))))) 
(and (or (<= (+ x1 0.8273354707) x2) (or (<= (+ x2 0.6039417574) x1) (or (>= (- y1 0.8938167076) y2) (or (>= (- y2 0.8450277292) y1))))) 
(and (or (<= (+ x1 0.8273354707) x3) (or (<= (+ x3 0.1995521615) x1) (or (>= (- y1 0.8938167076) y3) (or (>= (- y3 0.806564382) y1))))) 
(and (or (<= (+ x1 0.8273354707) x4) (or (<= (+ x4 0.2348373975) x1) (or (>= (- y1 0.8938167076) y4) (or (>= (- y4 0.7780718243) y1))))) 
(and (or (<= (+ x1 0.8273354707) x5) (or (<= (+ x5 0.4633199918) x1) (or (>= (- y1 0.8938167076) y5) (or (>= (- y5 0.7233173566) y1))))) 
(and (or (<= (+ x1 0.8273354707) x6) (or (<= (+ x6 0.9334849043) x1) (or (>= (- y1 0.8938167076) y6) (or (>= (- y6 0.5984089855) y1))))) 
(and (or (<= (+ x1 0.8273354707) x7) (or (<= (+ x7 0.6901500427) x1) (or (>= (- y1 0.8938167076) y7) (or (>= (- y7 0.3730243976) y1))))) 
(and (or (<= (+ x1 0.8273354707) x8) (or (<= (+ x8 0.0820449569) x1) (or (>= (- y1 0.8938167076) y8) (or (>= (- y8 0.1995476485) y1))))) 
(and (or (<= (+ x1 0.8273354707) x9) (or (<= (+ x9 0.1710799512) x1) (or (>= (- y1 0.8938167076) y9) (or (>= (- y9 0.1933476533) y1))))) 
(and (or (<= (+ x1 0.8273354707) x10) (or (<= (+ x10 0.2681052911) x1) (or (>= (- y1 0.8938167076) y10) (or (>= (- y10 0.145351642) y1))))) 
(and (or (<= (+ x1 0.8273354707) x11) (or (<= (+ x11 0.7855995674) x1) (or (>= (- y1 0.8938167076) y11) (or (>= (- y11 0.0725243686) y1))))) 
(and (or (<= (+ x2 0.6039417574) x3) (or (<= (+ x3 0.1995521615) x2) (or (>= (- y2 0.8450277292) y3) (or (>= (- y3 0.806564382) y2))))) 
(and (or (<= (+ x2 0.6039417574) x4) (or (<= (+ x4 0.2348373975) x2) (or (>= (- y2 0.8450277292) y4) (or (>= (- y4 0.7780718243) y2))))) 
(and (or (<= (+ x2 0.6039417574) x5) (or (<= (+ x5 0.4633199918) x2) (or (>= (- y2 0.8450277292) y5) (or (>= (- y5 0.7233173566) y2))))) 
(and (or (<= (+ x2 0.6039417574) x6) (or (<= (+ x6 0.9334849043) x2) (or (>= (- y2 0.8450277292) y6) (or (>= (- y6 0.5984089855) y2))))) 
(and (or (<= (+ x2 0.6039417574) x7) (or (<= (+ x7 0.6901500427) x2) (or (>= (- y2 0.8450277292) y7) (or (>= (- y7 0.3730243976) y2))))) 
(and (or (<= (+ x2 0.6039417574) x8) (or (<= (+ x8 0.0820449569) x2) (or (>= (- y2 0.8450277292) y8) (or (>= (- y8 0.1995476485) y2))))) 
(and (or (<= (+ x2 0.6039417574) x9) (or (<= (+ x9 0.1710799512) x2) (or (>= (- y2 0.8450277292) y9) (or (>= (- y9 0.1933476533) y2))))) 
(and (or (<= (+ x2 0.6039417574) x10) (or (<= (+ x10 0.2681052911) x2) (or (>= (- y2 0.8450277292) y10) (or (>= (- y10 0.145351642) y2))))) 
(and (or (<= (+ x2 0.6039417574) x11) (or (<= (+ x11 0.7855995674) x2) (or (>= (- y2 0.8450277292) y11) (or (>= (- y11 0.0725243686) y2))))) 
(and (or (<= (+ x3 0.1995521615) x4) (or (<= (+ x4 0.2348373975) x3) (or (>= (- y3 0.806564382) y4) (or (>= (- y4 0.7780718243) y3))))) 
(and (or (<= (+ x3 0.1995521615) x5) (or (<= (+ x5 0.4633199918) x3) (or (>= (- y3 0.806564382) y5) (or (>= (- y5 0.7233173566) y3))))) 
(and (or (<= (+ x3 0.1995521615) x6) (or (<= (+ x6 0.9334849043) x3) (or (>= (- y3 0.806564382) y6) (or (>= (- y6 0.5984089855) y3))))) 
(and (or (<= (+ x3 0.1995521615) x7) (or (<= (+ x7 0.6901500427) x3) (or (>= (- y3 0.806564382) y7) (or (>= (- y7 0.3730243976) y3))))) 
(and (or (<= (+ x3 0.1995521615) x8) (or (<= (+ x8 0.0820449569) x3) (or (>= (- y3 0.806564382) y8) (or (>= (- y8 0.1995476485) y3))))) 
(and (or (<= (+ x3 0.1995521615) x9) (or (<= (+ x9 0.1710799512) x3) (or (>= (- y3 0.806564382) y9) (or (>= (- y9 0.1933476533) y3))))) 
(and (or (<= (+ x3 0.1995521615) x10) (or (<= (+ x10 0.2681052911) x3) (or (>= (- y3 0.806564382) y10) (or (>= (- y10 0.145351642) y3))))) 
(and (or (<= (+ x3 0.1995521615) x11) (or (<= (+ x11 0.7855995674) x3) (or (>= (- y3 0.806564382) y11) (or (>= (- y11 0.0725243686) y3))))) 
(and (or (<= (+ x4 0.2348373975) x5) (or (<= (+ x5 0.4633199918) x4) (or (>= (- y4 0.7780718243) y5) (or (>= (- y5 0.7233173566) y4))))) 
(and (or (<= (+ x4 0.2348373975) x6) (or (<= (+ x6 0.9334849043) x4) (or (>= (- y4 0.7780718243) y6) (or (>= (- y6 0.5984089855) y4))))) 
(and (or (<= (+ x4 0.2348373975) x7) (or (<= (+ x7 0.6901500427) x4) (or (>= (- y4 0.7780718243) y7) (or (>= (- y7 0.3730243976) y4))))) 
(and (or (<= (+ x4 0.2348373975) x8) (or (<= (+ x8 0.0820449569) x4) (or (>= (- y4 0.7780718243) y8) (or (>= (- y8 0.1995476485) y4))))) 
(and (or (<= (+ x4 0.2348373975) x9) (or (<= (+ x9 0.1710799512) x4) (or (>= (- y4 0.7780718243) y9) (or (>= (- y9 0.1933476533) y4))))) 
(and (or (<= (+ x4 0.2348373975) x10) (or (<= (+ x10 0.2681052911) x4) (or (>= (- y4 0.7780718243) y10) (or (>= (- y10 0.145351642) y4))))) 
(and (or (<= (+ x4 0.2348373975) x11) (or (<= (+ x11 0.7855995674) x4) (or (>= (- y4 0.7780718243) y11) (or (>= (- y11 0.0725243686) y4))))) 
(and (or (<= (+ x5 0.4633199918) x6) (or (<= (+ x6 0.9334849043) x5) (or (>= (- y5 0.7233173566) y6) (or (>= (- y6 0.5984089855) y5))))) 
(and (or (<= (+ x5 0.4633199918) x7) (or (<= (+ x7 0.6901500427) x5) (or (>= (- y5 0.7233173566) y7) (or (>= (- y7 0.3730243976) y5))))) 
(and (or (<= (+ x5 0.4633199918) x8) (or (<= (+ x8 0.0820449569) x5) (or (>= (- y5 0.7233173566) y8) (or (>= (- y8 0.1995476485) y5))))) 
(and (or (<= (+ x5 0.4633199918) x9) (or (<= (+ x9 0.1710799512) x5) (or (>= (- y5 0.7233173566) y9) (or (>= (- y9 0.1933476533) y5))))) 
(and (or (<= (+ x5 0.4633199918) x10) (or (<= (+ x10 0.2681052911) x5) (or (>= (- y5 0.7233173566) y10) (or (>= (- y10 0.145351642) y5))))) 
(and (or (<= (+ x5 0.4633199918) x11) (or (<= (+ x11 0.7855995674) x5) (or (>= (- y5 0.7233173566) y11) (or (>= (- y11 0.0725243686) y5))))) 
(and (or (<= (+ x6 0.9334849043) x7) (or (<= (+ x7 0.6901500427) x6) (or (>= (- y6 0.5984089855) y7) (or (>= (- y7 0.3730243976) y6))))) 
(and (or (<= (+ x6 0.9334849043) x8) (or (<= (+ x8 0.0820449569) x6) (or (>= (- y6 0.5984089855) y8) (or (>= (- y8 0.1995476485) y6))))) 
(and (or (<= (+ x6 0.9334849043) x9) (or (<= (+ x9 0.1710799512) x6) (or (>= (- y6 0.5984089855) y9) (or (>= (- y9 0.1933476533) y6))))) 
(and (or (<= (+ x6 0.9334849043) x10) (or (<= (+ x10 0.2681052911) x6) (or (>= (- y6 0.5984089855) y10) (or (>= (- y10 0.145351642) y6))))) 
(and (or (<= (+ x6 0.9334849043) x11) (or (<= (+ x11 0.7855995674) x6) (or (>= (- y6 0.5984089855) y11) (or (>= (- y11 0.0725243686) y6))))) 
(and (or (<= (+ x7 0.6901500427) x8) (or (<= (+ x8 0.0820449569) x7) (or (>= (- y7 0.3730243976) y8) (or (>= (- y8 0.1995476485) y7))))) 
(and (or (<= (+ x7 0.6901500427) x9) (or (<= (+ x9 0.1710799512) x7) (or (>= (- y7 0.3730243976) y9) (or (>= (- y9 0.1933476533) y7))))) 
(and (or (<= (+ x7 0.6901500427) x10) (or (<= (+ x10 0.2681052911) x7) (or (>= (- y7 0.3730243976) y10) (or (>= (- y10 0.145351642) y7))))) 
(and (or (<= (+ x7 0.6901500427) x11) (or (<= (+ x11 0.7855995674) x7) (or (>= (- y7 0.3730243976) y11) (or (>= (- y11 0.0725243686) y7))))) 
(and (or (<= (+ x8 0.0820449569) x9) (or (<= (+ x9 0.1710799512) x8) (or (>= (- y8 0.1995476485) y9) (or (>= (- y9 0.1933476533) y8))))) 
(and (or (<= (+ x8 0.0820449569) x10) (or (<= (+ x10 0.2681052911) x8) (or (>= (- y8 0.1995476485) y10) (or (>= (- y10 0.145351642) y8))))) 
(and (or (<= (+ x8 0.0820449569) x11) (or (<= (+ x11 0.7855995674) x8) (or (>= (- y8 0.1995476485) y11) (or (>= (- y11 0.0725243686) y8))))) 
(and (or (<= (+ x9 0.1710799512) x10) (or (<= (+ x10 0.2681052911) x9) (or (>= (- y9 0.1933476533) y10) (or (>= (- y10 0.145351642) y9))))) 
(and (or (<= (+ x9 0.1710799512) x11) (or (<= (+ x11 0.7855995674) x9) (or (>= (- y9 0.1933476533) y11) (or (>= (- y11 0.0725243686) y9))))) 
(and (or (<= (+ x10 0.2681052911) x11) (or (<= (+ x11 0.7855995674) x10) (or (>= (- y10 0.145351642) y11) (or (>= (- y11 0.0725243686) y10))))) )))))))))))))))))))))))))))))))))))))))))))))))))))))))))))))))))))))))))))))))))))))))))))))))))))))))))))))))))))))))))))))))))))))))))))))))))))))))))))
(minimize c)
(check-sat)
(get-objectives)
(exit)
